s td 15 66 80
b 1 1 2 3 4 5 6 7 8 9 11 12 13 14 15 18 20 22 23 25 26 27 28 29 32 33 35 36 37 38 39 40 43 44 45 46 48 49 50 51 52 53 54 55 56 57 58 59 60 61 62 63 64 65 66 67 68 69 70 72 74 75 76 77 79 80
b 2 1 2 4 5 6 7 8 9 11 12 13 14 15 18 20 22 23 24 25 26 27 28 29 32 33 35 36 37 38 39 40 43 44 45 46 48 49 50 51 52 53 54 55 56 57 58 59 60 61 62 63 64 65 66 67 68 69 70 72 74 75 76 77 79 80
b 3 1 2 4 5 6 7 8 9 11 12 13 14 15 18 20 22 23 24 25 26 27 28 29 30 32 33 35 36 37 38 40 43 44 45 46 48 49 50 51 52 53 54 55 56 57 58 59 60 61 63 64 65 66 67 68 69 70 72 74 75 76 77 79 80
b 4 1 2 4 5 6 7 8 9 11 12 14 18 20 22 23 25 27 28 30 32 33 36 40 42 43 45 46 49 50 51 52 57 58 59 60 61 63 64 65 66 67 68 69 70 72 74 77 80
b 5 1 6 7 8 10 11 14 18 22 25 28 30 32 42 43 45 46 49 52 57 59 60 61 65 66 67 68 69 70 74 77
b 6 1 2 4 7 8 11 12 13 15 21 24 25 26 27 28 29 30 32 36 37 44 45 46 48 49 53 54 55 56 57 58 61 66 68 74 77 79 80
b 7 1 2 3 4 5 6 7 8 9 11 12 13 14 15 18 19 20 23 25 26 27 28 29 32 33 35 36 37 38 39 40 43 44 45 46 48 49 50 51 52 53 54 55 56 57 58 59 60 61 62 63 64 65 66 67 68 69 70 71 72 74 75 76 77 79 80
b 8 1 2 3 4 5 6 7 8 9 11 12 13 14 15 16 18 19 20 23 25 26 27 28 29 32 33 35 36 37 38 39 40 43 44 45 46 48 49 50 51 52 53 54 55 56 58 60 61 62 63 64 65 66 67 68 69 70 71 72 74 75 76 77 79 80
b 9 1 2 3 4 5 6 7 8 9 11 12 13 14 15 16 17 18 19 20 23 25 26 27 28 29 32 33 35 36 37 38 39 40 43 44 45 46 48 49 50 51 52 53 54 55 56 58 61 62 63 64 65 66 67 68 69 70 71 72 74 76 77 79 80
b 10 1 2 3 4 5 6 8 9 11 12 13 15 16 17 18 19 20 23 25 26 27 28 29 31 32 33 35 36 37 38 39 40 43 44 45 46 48 49 50 51 52 53 54 55 56 58 61 62 63 64 65 66 67 68 69 70 71 72 74 76 77 79 80
b 11 1 2 3 4 5 6 8 9 11 12 13 15 16 17 18 19 20 23 25 26 27 28 29 31 32 35 36 37 38 39 40 43 44 45 46 47 48 50 51 52 53 54 55 56 58 61 62 63 64 65 66 67 69 74 76 77 79 80
b 12 1 2 4 6 8 9 12 13 16 17 19 20 26 28 29 31 34 36 37 38 40 45 47 48 50 52 54 55 56 61 62 63 64 65 67 69 74 76 79
b 13 1 2 3 4 7 8 9 11 12 13 14 15 18 19 20 23 25 26 27 28 29 32 33 35 36 37 38 39 40 43 44 45 46 48 49 50 51 52 53 54 55 56 57 58 59 60 61 62 63 64 65 66 67 68 69 70 71 73 74 76 77 79 80
b 14 1 2 3 4 7 8 9 12 13 14 15 18 19 20 23 25 26 27 28 32 35 36 37 38 39 41 43 44 46 48 50 51 52 53 54 55 57 58 59 60 61 62 63 64 66 67 68 69 70 71 73 74 76 77 79 80
b 15 1 2 3 8 12 13 14 18 20 25 26 27 28 32 35 36 37 38 39 41 43 44 48 51 52 53 54 55 57 59 61 62 66 67 69 70 71 74 76 77 78 79 80
1 2
1 7
2 3
3 4
3 6
4 5
7 8
7 13
8 9
9 10
10 11
11 12
13 14
14 15
